c description: Random 2-CNF over 15 variables and 45 clauses
c generator: CNFgen (0.9.0)
c copyright: (C) 2012-2020 Massimo Lauria <massimo.lauria@uniroma1.it>
c url: https://massimolauria.net/cnfgen
c
p cnf 15 45
-7 -12 0
1 3 0
6 -8 0
-5 10 0
-5 6 0
1 13 0
-6 -7 0
2 8 0
12 -15 0
-5 -11 0
11 15 0
-7 9 0
5 -11 0
-7 -11 0
-4 11 0
-3 14 0
7 15 0
7 -9 0
6 8 0
-10 -11 0
4 13 0
-8 -14 0
5 -7 0
-6 -13 0
-7 15 0
-2 -13 0
10 15 0
-1 -10 0
-10 12 0
6 -10 0
-1 4 0
11 13 0
-1 -11 0
-4 -10 0
-2 -8 0
3 -13 0
5 -8 0
5 14 0
7 9 0
3 5 0
6 -9 0
-5 11 0
5 9 0
-4 5 0
6 -15 0